\* Simple Diet Problem *\
Minimize
Total_Cost_of_the_balanced_diet: 0.23 Food_2%_Lowfat_Milk
 + 0.16 Food_3.3%_Fat,Whole_Milk + 0.24 Food_Apple,Raw,W_Skin
 + 0.16 Food_Apple_Pie + 0.16 Food_Bagels + 0.15 Food_Banana
 + 0.67 Food_Beanbacn_Soup,W_Watr + 0.15 Food_Bologna,Turkey
 + 0.05 Food_Butter,Regular + 0.31 Food_Cap'N_Crunch + 0.07 Food_Carrots,Raw
 + 0.04 Food_Celery,_Raw + 0.25 Food_Cheddar_Cheese + 0.28 Food_Cheerios
 + 0.39 Food_Chicknoodl_Soup + 0.03 Food_Chocolate_Chip_Cookies
 + 0.28 Food_Corn_Flks,_Kellogg'S + 0.39 Food_Couscous
 + 0.65 Food_Crm_Mshrm_Soup,W_Mlk + 0.27 Food_Frankfurter,_Beef
 + 0.16 Food_Frozen_Broccoli + 0.18 Food_Frozen_Corn + 0.32 Food_Grapes
 + 0.33 Food_Ham,Sliced,Extralean + 0.83 Food_Hamburger_W_Toppings
 + 0.31 Food_Hotdog,_Plain + 0.15 Food_Kielbasa,Prk
 + 0.49 Food_Kiwifruit,Raw,Fresh + 0.02 Food_Lettuce,Iceberg,Raw
 + 0.17 Food_Macaroni,Ckd + 0.52 Food_Malt_O_Meal,Choc
 + 0.99 Food_New_E_Clamchwd,W_Mlk + 0.75 Food_Neweng_Clamchwd
 + 0.82 Food_Oatmeal + 0.09 Food_Oatmeal_Cookies + 0.15 Food_Oranges
 + 0.07 Food_Peanut_Butter + 0.53 Food_Peppers,_Sweet,_Raw
 + 0.44 Food_Pizza_W_Pepperoni + 0.08 Food_Poached_Eggs
 + 0.04 Food_Popcorn,Air_Popped + 0.81 Food_Pork
 + 0.22 Food_Potato_Chips,Bbqflvr + 0.06 Food_Potatoes,_Baked
 + 0.12 Food_Pretzels + 0.34 Food_Raisin_Brn,_Kellg'S
 + 0.32 Food_Rice_Krispies + 0.84 Food_Roasted_Chicken
 + 0.45 Food_Sardines_in_Oil + 0.11 Food_Scrambled_Eggs + 0.13 Food_Skim_Milk
 + 0.78 Food_Spaghetti_W__Sauce + 0.38 Food_Special_K
 + 0.67 Food_Splt_Pea&Hamsoup + 0.59 Food_Taco + 0.31 Food_Tofu
 + 0.27 Food_Tomato,Red,Ripe,Raw + 0.39 Food_Tomato_Soup
 + 0.19 Food_Tortilla_Chip + 0.71 Food_Vegetbeef_Soup + 0.05 Food_Wheat_Bread
 + 0.06 Food_White_Bread + 0.08 Food_White_Rice
 + 0.69 Food_White_Tuna_in_Water
Subject To
End
